outputs/case_302.model.txt
prohibited_behavior_32 = True
securities_assistant_prohibited_32 = False
prohibited_behavior_18 = True
securities_responsible_and_staff_prohibited_18 = False
prohibited_behavior_other_employees = True
other_employees_prohibition_18 = False
violation_36_1_related = False
failure_to_submit_or_obstruct_inspection = True
violation_22_2_1_2 = False
violation_26_2_related = False
violation_14_4_related = False
violation_43_related = False
violation_14_6_related = False
violation_26_3_related = False
violation_28_2_related = False
failure_to_prepare_or_report_documents = False
violation_14_related = False
violation_25_1_related = True
violation_mild = True
improvement_completed = True
honest_faithful_execution_18 = False
violation_177_1 = False
perform_or_agent_business_duties = True
violation_56 = True
honest_faithful_execution = False
violate_32 = False
non_business_employee_restriction_32 = False
securities_business_sanction_56 = True
responsible_person_penalty = True
violation_178_12 = False
violation_178_10 = False
violation_178_8 = False
violation_178_5 = False
violation_178_3 = True
violation_178_7 = True
violation_178_11 = False
violation_178_2 = False
violation_foreign_178_3_4 = True
violation_178_9 = False
violation_178_4 = False
securities_assistant_duty_32 = False
securities_responsible_and_staff_duty_18 = False
penalty_exempted = True
penalty = False
violation_178_6 = False
improvement_ordered = False
violation_178_1 = False
securities_business_violation_56 = True